data/solutions/recovery/wellformed/moderate/flexible/wellformed_moderate_instance64/9.sol
Elapsed time: 3.87
Upper bound: 4861.0
Planning weighted value: 129207.0
C[0]=4861.0
C[1]=4861.0
C[2]=4861.0
C[3]=4861.0
C[4]=0.0
y[0]=0
y[1]=1
y[2]=2
y[3]=1
y[4]=0
y[5]=1
y[6]=0
y[7]=0
y[8]=1
y[9]=3
y[10]=0
y[11]=0
y[12]=3
y[13]=1
y[14]=3
y[15]=0
y[16]=2
y[17]=1
y[18]=0
y[19]=3
y[20]=0
y[21]=1
y[22]=3
y[23]=2
y[24]=2
y[25]=2
y[26]=2
y[27]=1
y[28]=3
y[29]=2
y[30]=2
y[31]=0
y[32]=3
y[33]=1
y[34]=3
y[35]=1
y[36]=3
y[37]=0
y[38]=2
y[39]=3
y[40]=1
